; benchmark generated from python API
(set-info :status unknown)
(declare-fun syscall_stub_newfstatat_83_64 () (_ BitVec 64))
(declare-fun mem_c0080014_89_32 () (_ BitVec 32))
(declare-fun mem_c0080018_88_32 () (_ BitVec 32))
(declare-fun mem_c0080024_86_32 () (_ BitVec 32))
(declare-fun mem_c0080020_87_32 () (_ BitVec 32))
(declare-fun mem_c0080010_84_32 () (_ BitVec 32))
(declare-fun mem_c0080008_85_32 () (_ BitVec 32))
(declare-fun mem_c0000f45_79_992 () (_ BitVec 992))
(declare-fun mem_c0001010_98_32 () (_ BitVec 32))
(declare-fun mem_fffffc0000000002_181_128 () (_ BitVec 128))
(assert
 (let ((?x47 ((_ extract 31 0) syscall_stub_newfstatat_83_64)))
 (bvule ?x47 (_ bv4294963200 32))))
(assert
 (let ((?x123 (bvadd mem_c0080018_88_32 mem_c0080014_89_32)))
 (let ((?x129 (concat (_ bv0 32) ?x123)))
 (let ((?x657281 (concat (concat (_ bv0 26) mem_c0080024_86_32) (_ bv0 1))))
 (let ((?x201 (concat (_ bv0 27) mem_c0080024_86_32)))
 (let ((?x655408 (bvadd ?x201 ?x657281)))
 (let ((?x649096 (concat ?x655408 (_ bv0 3))))
 (let ((?x661503 (concat (concat (_ bv0 29) mem_c0080024_86_32) (_ bv0 1))))
 (let ((?x190 (concat (_ bv0 30) mem_c0080024_86_32)))
 (let ((?x650725 (bvadd (bvadd ?x190 ?x661503) ?x649096)))
 (let ((?x661498 (concat ?x650725 (_ bv0 2))))
 (let ((?x168 (concat (_ bv0 32) mem_c0080020_87_32)))
 (let ((?x650579 (bvadd ?x168 ?x661498)))
 (let ((?x656625 (concat (concat (_ bv0 29) mem_c0080010_84_32) (_ bv0 1))))
 (let ((?x161 (concat (_ bv0 30) mem_c0080010_84_32)))
 (let ((?x654752 (bvadd ?x161 ?x656625)))
 (let ((?x661510 (concat ?x654752 (_ bv0 2))))
 (let ((?x143 (concat (_ bv0 32) mem_c0080008_85_32)))
 (let ((?x655599 (bvadd ?x143 ?x661510)))
 (let (($x650638 (bvsle ?x650579 ?x655599)))
 (let ((?x654584 (ite $x650638 ?x655599 ?x650579)))
 (let (($x661499 (bvsle ?x129 ?x654584)))
 (let ((?x655513 (ite $x661499 ?x654584 ?x129)))
 (let (($x650691 (= (_ bv0 64) ?x655513)))
 (not $x650691)))))))))))))))))))))))))
(assert
 (let ((?x2189 ((_ extract 900 900) mem_c0000f45_79_992)))
 (= (_ bv0 1) ?x2189)))
(assert
 (let ((?x2374 ((_ extract 839 832) mem_c0000f45_79_992)))
 (let ((?x2364 ((_ extract 831 824) mem_c0000f45_79_992)))
 (let ((?x2349 ((_ extract 823 816) mem_c0000f45_79_992)))
 (let ((?x2357 ((_ extract 815 808) mem_c0000f45_79_992)))
 (let ((?x2362 ((_ extract 807 800) mem_c0000f45_79_992)))
 (let ((?x2363 ((_ extract 799 792) mem_c0000f45_79_992)))
 (let ((?x593 (concat (concat ((_ extract 783 776) mem_c0000f45_79_992) ((_ extract 791 784) mem_c0000f45_79_992)) ?x2363)))
 (let ((?x4215 (concat (concat (concat (concat ?x593 ?x2362) ?x2357) ?x2349) ?x2364)))
 (let ((?x3812 (concat ?x4215 ?x2374)))
 (let ((?x3646 (bvmul (_ bv18446744073709551615 64) ?x3812)))
 (let ((?x2427 ((_ extract 775 768) mem_c0000f45_79_992)))
 (let ((?x2419 ((_ extract 767 760) mem_c0000f45_79_992)))
 (let ((?x2429 ((_ extract 759 752) mem_c0000f45_79_992)))
 (let ((?x2417 ((_ extract 751 744) mem_c0000f45_79_992)))
 (let ((?x2410 ((_ extract 743 736) mem_c0000f45_79_992)))
 (let ((?x2411 ((_ extract 735 728) mem_c0000f45_79_992)))
 (let ((?x4124 (concat (concat ((_ extract 719 712) mem_c0000f45_79_992) ((_ extract 727 720) mem_c0000f45_79_992)) ?x2411)))
 (let ((?x3823 (concat (concat (concat (concat (concat ?x4124 ?x2410) ?x2417) ?x2429) ?x2419) ?x2427)))
 (let ((?x3827 (bvadd ?x3823 ?x3646)))
 (let ((?x2482 ((_ extract 63 63) ?x3827)))
 (let (($x2285 (= (_ bv1 1) ?x2482)))
 (not $x2285)))))))))))))))))))))))
(assert
 (let ((?x4996 ((_ extract 837 832) mem_c0000f45_79_992)))
 (bvule ?x4996 (_ bv48 6))))
(assert
 (let ((?x2357 ((_ extract 815 808) mem_c0000f45_79_992)))
 (let ((?x2417 ((_ extract 751 744) mem_c0000f45_79_992)))
 (let (($x1690 (= ?x2417 ?x2357)))
 (let (($x3670 (not $x1690)))
 (let ((?x2362 ((_ extract 807 800) mem_c0000f45_79_992)))
 (let ((?x2410 ((_ extract 743 736) mem_c0000f45_79_992)))
 (let (($x1703 (= ?x2410 ?x2362)))
 (let (($x3664 (not $x1703)))
 (let ((?x2345 ((_ extract 783 776) mem_c0000f45_79_992)))
 (let ((?x2400 ((_ extract 719 712) mem_c0000f45_79_992)))
 (let (($x1701 (= ?x2400 ?x2345)))
 (let (($x3671 (not $x1701)))
 (let ((?x2363 ((_ extract 799 792) mem_c0000f45_79_992)))
 (let ((?x2411 ((_ extract 735 728) mem_c0000f45_79_992)))
 (let (($x1704 (= ?x2411 ?x2363)))
 (let (($x3672 (not $x1704)))
 (let ((?x2346 ((_ extract 791 784) mem_c0000f45_79_992)))
 (let ((?x2401 ((_ extract 727 720) mem_c0000f45_79_992)))
 (let (($x1693 (= ?x2401 ?x2346)))
 (let (($x4136 (not $x1693)))
 (let ((?x2364 ((_ extract 831 824) mem_c0000f45_79_992)))
 (let ((?x2419 ((_ extract 767 760) mem_c0000f45_79_992)))
 (let (($x1155 (= ?x2419 ?x2364)))
 (let (($x4137 (not $x1155)))
 (let ((?x2374 ((_ extract 839 832) mem_c0000f45_79_992)))
 (let ((?x2427 ((_ extract 775 768) mem_c0000f45_79_992)))
 (let (($x1152 (= ?x2427 ?x2374)))
 (let (($x4139 (not $x1152)))
 (let ((?x2349 ((_ extract 823 816) mem_c0000f45_79_992)))
 (let ((?x2429 ((_ extract 759 752) mem_c0000f45_79_992)))
 (let (($x1714 (= ?x2429 ?x2349)))
 (let (($x4539 (not $x1714)))
 (or $x4539 $x4139 $x4137 $x4136 $x3672 $x3671 $x3664 $x3670))))))))))))))))))))))))))))))))))
(assert
 (= (_ bv0 32) mem_c0001010_98_32))
(assert
 (let ((?x2374 ((_ extract 839 832) mem_c0000f45_79_992)))
 (let ((?x2364 ((_ extract 831 824) mem_c0000f45_79_992)))
 (let ((?x2349 ((_ extract 823 816) mem_c0000f45_79_992)))
 (let ((?x2357 ((_ extract 815 808) mem_c0000f45_79_992)))
 (let ((?x2362 ((_ extract 807 800) mem_c0000f45_79_992)))
 (let ((?x2363 ((_ extract 799 792) mem_c0000f45_79_992)))
 (let ((?x593 (concat (concat ((_ extract 783 776) mem_c0000f45_79_992) ((_ extract 791 784) mem_c0000f45_79_992)) ?x2363)))
 (let ((?x4215 (concat (concat (concat (concat ?x593 ?x2362) ?x2357) ?x2349) ?x2364)))
 (let ((?x3812 (concat ?x4215 ?x2374)))
 (bvule ?x3812 (_ bv18446744073709551600 64))))))))))))
(assert
 (let ((?x2374 ((_ extract 839 832) mem_c0000f45_79_992)))
 (let ((?x2364 ((_ extract 831 824) mem_c0000f45_79_992)))
 (let ((?x2349 ((_ extract 823 816) mem_c0000f45_79_992)))
 (let ((?x2357 ((_ extract 815 808) mem_c0000f45_79_992)))
 (let ((?x2362 ((_ extract 807 800) mem_c0000f45_79_992)))
 (let ((?x2363 ((_ extract 799 792) mem_c0000f45_79_992)))
 (let ((?x593 (concat (concat ((_ extract 783 776) mem_c0000f45_79_992) ((_ extract 791 784) mem_c0000f45_79_992)) ?x2363)))
 (let ((?x4215 (concat (concat (concat (concat ?x593 ?x2362) ?x2357) ?x2349) ?x2364)))
 (let ((?x3812 (concat ?x4215 ?x2374)))
 (= (_ bv18446739675663040514 64) ?x3812)))))))))))
(assert
 (let ((?x63235 ((_ extract 7 0) mem_fffffc0000000002_181_128)))
 (let (($x61961 (= (_ bv10 8) ?x63235)))
 (let ((?x61997 (ite $x61961 (_ bv1 1) (_ bv0 1))))
 (let ((?x60572 ((_ extract 15 8) mem_fffffc0000000002_181_128)))
 (let (($x59851 (= (_ bv10 8) ?x60572)))
 (let ((?x61147 (ite $x59851 (_ bv1 1) (_ bv0 1))))
 (let ((?x62785 ((_ extract 23 16) mem_fffffc0000000002_181_128)))
 (let (($x46264 (= (_ bv10 8) ?x62785)))
 (let ((?x59519 (ite $x46264 (_ bv1 1) (_ bv0 1))))
 (let ((?x60429 ((_ extract 31 24) mem_fffffc0000000002_181_128)))
 (let (($x60529 (= (_ bv10 8) ?x60429)))
 (let ((?x63311 (ite $x60529 (_ bv1 1) (_ bv0 1))))
 (let ((?x61652 ((_ extract 39 32) mem_fffffc0000000002_181_128)))
 (let (($x59788 (= (_ bv10 8) ?x61652)))
 (let ((?x61998 (ite $x59788 (_ bv1 1) (_ bv0 1))))
 (let ((?x64803 ((_ extract 47 40) mem_fffffc0000000002_181_128)))
 (let (($x61960 (= (_ bv10 8) ?x64803)))
 (let ((?x61700 (ite $x61960 (_ bv1 1) (_ bv0 1))))
 (let ((?x61206 ((_ extract 55 48) mem_fffffc0000000002_181_128)))
 (let (($x59117 (= (_ bv10 8) ?x61206)))
 (let ((?x61387 (ite $x59117 (_ bv1 1) (_ bv0 1))))
 (let ((?x59770 ((_ extract 63 56) mem_fffffc0000000002_181_128)))
 (let (($x59940 (= (_ bv10 8) ?x59770)))
 (let ((?x61608 (ite $x59940 (_ bv1 1) (_ bv0 1))))
 (let ((?x61668 ((_ extract 71 64) mem_fffffc0000000002_181_128)))
 (let (($x59422 (= (_ bv10 8) ?x61668)))
 (let ((?x60706 (ite $x59422 (_ bv1 1) (_ bv0 1))))
 (let ((?x61359 ((_ extract 79 72) mem_fffffc0000000002_181_128)))
 (let (($x60246 (= (_ bv10 8) ?x61359)))
 (let ((?x60751 (ite $x60246 (_ bv1 1) (_ bv0 1))))
 (let ((?x64613 ((_ extract 87 80) mem_fffffc0000000002_181_128)))
 (let (($x58004 (= (_ bv10 8) ?x64613)))
 (let ((?x63833 (ite $x58004 (_ bv1 1) (_ bv0 1))))
 (let ((?x59455 ((_ extract 95 88) mem_fffffc0000000002_181_128)))
 (let (($x61878 (= (_ bv10 8) ?x59455)))
 (let ((?x60355 (ite $x61878 (_ bv1 1) (_ bv0 1))))
 (let ((?x60341 ((_ extract 103 96) mem_fffffc0000000002_181_128)))
 (let (($x62016 (= (_ bv10 8) ?x60341)))
 (let ((?x61198 (ite $x62016 (_ bv1 1) (_ bv0 1))))
 (let ((?x61429 ((_ extract 111 104) mem_fffffc0000000002_181_128)))
 (let (($x57362 (= (_ bv10 8) ?x61429)))
 (let ((?x62185 (ite $x57362 (_ bv1 1) (_ bv0 1))))
 (let ((?x61582 ((_ extract 119 112) mem_fffffc0000000002_181_128)))
 (let (($x62111 (= (_ bv10 8) ?x61582)))
 (let ((?x62308 (ite $x62111 (_ bv1 1) (_ bv0 1))))
 (let ((?x60471 ((_ extract 127 120) mem_fffffc0000000002_181_128)))
 (let (($x60030 (= (_ bv10 8) ?x60471)))
 (let ((?x60560 (ite $x60030 (_ bv1 1) (_ bv0 1))))
 (let ((?x64156 (concat (concat (concat (concat (concat ?x60560 ?x62308) ?x62185) ?x61198) ?x60355) ?x63833)))
 (let ((?x62822 (concat (concat (concat (concat (concat ?x64156 ?x60751) ?x60706) ?x61608) ?x61387) ?x61700)))
 (let ((?x61665 (concat (concat (concat (concat (concat ?x62822 ?x61998) ?x63311) ?x59519) ?x61147) ?x61997)))
 (= (_ bv0 16) ?x61665)))))))))))))))))))))))))))))))))))))))))))))))))))))
(assert
 (let ((?x2374 ((_ extract 839 832) mem_c0000f45_79_992)))
 (let ((?x2364 ((_ extract 831 824) mem_c0000f45_79_992)))
 (let ((?x2349 ((_ extract 823 816) mem_c0000f45_79_992)))
 (let ((?x2357 ((_ extract 815 808) mem_c0000f45_79_992)))
 (let ((?x2362 ((_ extract 807 800) mem_c0000f45_79_992)))
 (let ((?x2363 ((_ extract 799 792) mem_c0000f45_79_992)))
 (let ((?x593 (concat (concat ((_ extract 783 776) mem_c0000f45_79_992) ((_ extract 791 784) mem_c0000f45_79_992)) ?x2363)))
 (let ((?x4215 (concat (concat (concat (concat ?x593 ?x2362) ?x2357) ?x2349) ?x2364)))
 (let ((?x3812 (concat ?x4215 ?x2374)))
 (let ((?x3646 (bvmul (_ bv18446744073709551615 64) ?x3812)))
 (let ((?x2427 ((_ extract 775 768) mem_c0000f45_79_992)))
 (let ((?x2419 ((_ extract 767 760) mem_c0000f45_79_992)))
 (let ((?x2429 ((_ extract 759 752) mem_c0000f45_79_992)))
 (let ((?x2417 ((_ extract 751 744) mem_c0000f45_79_992)))
 (let ((?x2410 ((_ extract 743 736) mem_c0000f45_79_992)))
 (let ((?x2411 ((_ extract 735 728) mem_c0000f45_79_992)))
 (let ((?x4124 (concat (concat ((_ extract 719 712) mem_c0000f45_79_992) ((_ extract 727 720) mem_c0000f45_79_992)) ?x2411)))
 (let ((?x3823 (concat (concat (concat (concat (concat ?x4124 ?x2410) ?x2417) ?x2429) ?x2419) ?x2427)))
 (let ((?x3827 (bvadd ?x3823 ?x3646)))
 (let ((?x3615 ((_ extract 824 824) mem_c0000f45_79_992)))
 (let ((?x3589 (concat ?x3615 ?x2374)))
 (let ((?x4638 (bvmul (_ bv511 9) ?x3589)))
 (let ((?x4203 ((_ extract 760 760) mem_c0000f45_79_992)))
 (let ((?x3607 (concat ?x4203 ?x2427)))
 (let ((?x3785 (bvadd ?x3607 ?x4638)))
 (let (($x4511 (bvule ?x3785 (_ bv399 9))))
 (let ((?x4614 ((_ extract 63 9) ?x3827)))
 (let (($x4610 (= (_ bv0 55) ?x4614)))
 (let (($x4615 (and $x4610 $x4511)))
 (let ((?x4508 (ite $x4615 ?x3827 (_ bv399 64))))
 (bvule ?x4508 (_ bv16 64)))))))))))))))))))))))))))))))))
(minimize mem_c0080014_89_32)
(minimize mem_c0080008_85_32)
(maximize mem_c0080010_84_32)
(maximize mem_c0080020_87_32)
(maximize mem_c0000f45_79_992)
(minimize mem_c0080020_87_32)
(maximize mem_c0080024_86_32)
(minimize mem_c0080018_88_32)
(maximize mem_c0080018_88_32)
(minimize mem_c0080024_86_32)
(minimize mem_c0000f45_79_992)
(maximize mem_c0080008_85_32)
(minimize mem_c0080010_84_32)
(minimize mem_c0001010_98_32)
(minimize syscall_stub_newfstatat_83_64)
(minimize mem_fffffc0000000002_181_128)
(maximize mem_c0080014_89_32)
(maximize mem_c0001010_98_32)
(maximize mem_fffffc0000000002_181_128)
(maximize syscall_stub_newfstatat_83_64)
(check-sat)
(get-objectives)
